p cnf 480 1457
-73 -4 -7 0
-73 4 7 0
73 -4 7 0
73 4 -7 0
-74 -73 -13 0
-74 73 13 0
74 -73 13 0
74 73 -13 0
-75 -74 -38 0
-75 74 38 0
75 -74 38 0
75 74 -38 0
-76 -75 -39 0
-76 75 39 0
76 -75 39 0
76 75 -39 0
-77 -76 -55 0
-77 76 55 0
77 -76 55 0
77 76 -55 0
-77 0
-78 -5 -8 0
-78 5 8 0
78 -5 8 0
78 5 -8 0
-79 -78 -14 0
-79 78 14 0
79 -78 14 0
79 78 -14 0
-80 -79 -39 0
-80 79 39 0
80 -79 39 0
80 79 -39 0
-81 -80 -40 0
-81 80 40 0
81 -80 40 0
81 80 -40 0
-82 -81 -56 0
-82 81 56 0
82 -81 56 0
82 81 -56 0
-82 0
-83 -6 -9 0
-83 6 9 0
83 -6 9 0
83 6 -9 0
-84 -83 -15 0
-84 83 15 0
84 -83 15 0
84 83 -15 0
-85 -84 -40 0
-85 84 40 0
85 -84 40 0
85 84 -40 0
-86 -85 -41 0
-86 85 41 0
86 -85 41 0
86 85 -41 0
-87 -86 -57 0
-87 86 57 0
87 -86 57 0
87 86 -57 0
-87 0
-88 -1 -10 0
-88 1 10 0
88 -1 10 0
88 1 -10 0
-89 -88 -16 0
-89 88 16 0
89 -88 16 0
89 88 -16 0
-90 -89 -41 0
-90 89 41 0
90 -89 41 0
90 89 -41 0
-91 -90 -42 0
-91 90 42 0
91 -90 42 0
91 90 -42 0
-92 -91 -58 0
-92 91 58 0
92 -91 58 0
92 91 -58 0
-92 0
-93 -2 -11 0
-93 2 11 0
93 -2 11 0
93 2 -11 0
-94 -93 -17 0
-94 93 17 0
94 -93 17 0
94 93 -17 0
-95 -94 -37 0
-95 94 37 0
95 -94 37 0
95 94 -37 0
-96 -95 -42 0
-96 95 42 0
96 -95 42 0
96 95 -42 0
-97 -96 -59 0
-97 96 59 0
97 -96 59 0
97 96 -59 0
-97 0
-98 -3 -12 0
-98 3 12 0
98 -3 12 0
98 3 -12 0
-99 -98 -18 0
-99 98 18 0
99 -98 18 0
99 98 -18 0
-100 -99 -37 0
-100 99 37 0
100 -99 37 0
100 99 -37 0
-101 -100 -38 0
-101 100 38 0
101 -100 38 0
101 100 -38 0
-102 -101 -60 0
-102 101 60 0
102 -101 60 0
102 101 -60 0
-102 0
-103 -10 -13 0
-103 10 13 0
103 -10 13 0
103 10 -13 0
-104 -103 -19 0
-104 103 19 0
104 -103 19 0
104 103 -19 0
-105 -104 -44 0
-105 104 44 0
105 -104 44 0
105 104 -44 0
-106 -105 -45 0
-106 105 45 0
106 -105 45 0
106 105 -45 0
-107 -106 -61 0
-107 106 61 0
107 -106 61 0
107 106 -61 0
-107 0
-108 -11 -14 0
-108 11 14 0
108 -11 14 0
108 11 -14 0
-109 -108 -20 0
-109 108 20 0
109 -108 20 0
109 108 -20 0
-110 -109 -45 0
-110 109 45 0
110 -109 45 0
110 109 -45 0
-111 -110 -46 0
-111 110 46 0
111 -110 46 0
111 110 -46 0
-112 -111 -62 0
-112 111 62 0
112 -111 62 0
112 111 -62 0
-112 0
-113 -12 -15 0
-113 12 15 0
113 -12 15 0
113 12 -15 0
-114 -113 -21 0
-114 113 21 0
114 -113 21 0
114 113 -21 0
-115 -114 -46 0
-115 114 46 0
115 -114 46 0
115 114 -46 0
-116 -115 -47 0
-116 115 47 0
116 -115 47 0
116 115 -47 0
-117 -116 -63 0
-117 116 63 0
117 -116 63 0
117 116 -63 0
-117 0
-118 -7 -16 0
-118 7 16 0
118 -7 16 0
118 7 -16 0
-119 -118 -22 0
-119 118 22 0
119 -118 22 0
119 118 -22 0
-120 -119 -47 0
-120 119 47 0
120 -119 47 0
120 119 -47 0
-121 -120 -48 0
-121 120 48 0
121 -120 48 0
121 120 -48 0
-122 -121 -64 0
-122 121 64 0
122 -121 64 0
122 121 -64 0
-122 0
-123 -8 -17 0
-123 8 17 0
123 -8 17 0
123 8 -17 0
-124 -123 -23 0
-124 123 23 0
124 -123 23 0
124 123 -23 0
-125 -124 -43 0
-125 124 43 0
125 -124 43 0
125 124 -43 0
-126 -125 -48 0
-126 125 48 0
126 -125 48 0
126 125 -48 0
-127 -126 -65 0
-127 126 65 0
127 -126 65 0
127 126 -65 0
-127 0
-128 -9 -18 0
-128 9 18 0
128 -9 18 0
128 9 -18 0
-129 -128 -24 0
-129 128 24 0
129 -128 24 0
129 128 -24 0
-130 -129 -43 0
-130 129 43 0
130 -129 43 0
130 129 -43 0
-131 -130 -44 0
-131 130 44 0
131 -130 44 0
131 130 -44 0
-132 -131 -66 0
-132 131 66 0
132 -131 66 0
132 131 -66 0
-132 0
-133 -16 -19 0
-133 16 19 0
133 -16 19 0
133 16 -19 0
-134 -133 -25 0
-134 133 25 0
134 -133 25 0
134 133 -25 0
-135 -134 -50 0
-135 134 50 0
135 -134 50 0
135 134 -50 0
-136 -135 -51 0
-136 135 51 0
136 -135 51 0
136 135 -51 0
-137 -136 -67 0
-137 136 67 0
137 -136 67 0
137 136 -67 0
-137 0
-138 -17 -20 0
-138 17 20 0
138 -17 20 0
138 17 -20 0
-139 -138 -26 0
-139 138 26 0
139 -138 26 0
139 138 -26 0
-140 -139 -51 0
-140 139 51 0
140 -139 51 0
140 139 -51 0
-141 -140 -52 0
-141 140 52 0
141 -140 52 0
141 140 -52 0
-142 -141 -68 0
-142 141 68 0
142 -141 68 0
142 141 -68 0
-142 0
-143 -18 -21 0
-143 18 21 0
143 -18 21 0
143 18 -21 0
-144 -143 -27 0
-144 143 27 0
144 -143 27 0
144 143 -27 0
-145 -144 -52 0
-145 144 52 0
145 -144 52 0
145 144 -52 0
-146 -145 -53 0
-146 145 53 0
146 -145 53 0
146 145 -53 0
-147 -146 -69 0
-147 146 69 0
147 -146 69 0
147 146 -69 0
-147 0
-148 -13 -22 0
-148 13 22 0
148 -13 22 0
148 13 -22 0
-149 -148 -28 0
-149 148 28 0
149 -148 28 0
149 148 -28 0
-150 -149 -53 0
-150 149 53 0
150 -149 53 0
150 149 -53 0
-151 -150 -54 0
-151 150 54 0
151 -150 54 0
151 150 -54 0
-152 -151 -70 0
-152 151 70 0
152 -151 70 0
152 151 -70 0
-152 0
-153 -14 -23 0
-153 14 23 0
153 -14 23 0
153 14 -23 0
-154 -153 -29 0
-154 153 29 0
154 -153 29 0
154 153 -29 0
-155 -154 -49 0
-155 154 49 0
155 -154 49 0
155 154 -49 0
-156 -155 -54 0
-156 155 54 0
156 -155 54 0
156 155 -54 0
-157 -156 -71 0
-157 156 71 0
157 -156 71 0
157 156 -71 0
-157 0
-158 -15 -24 0
-158 15 24 0
158 -15 24 0
158 15 -24 0
-159 -158 -30 0
-159 158 30 0
159 -158 30 0
159 158 -30 0
-160 -159 -49 0
-160 159 49 0
160 -159 49 0
160 159 -49 0
-161 -160 -50 0
-161 160 50 0
161 -160 50 0
161 160 -50 0
-162 -161 -72 0
-162 161 72 0
162 -161 72 0
162 161 -72 0
-162 0
-163 -22 -25 0
-163 22 25 0
163 -22 25 0
163 22 -25 0
-164 -163 -31 0
-164 163 31 0
164 -163 31 0
164 163 -31 0
-165 -164 -37 0
-165 164 37 0
165 -164 37 0
165 164 -37 0
-166 -165 -56 0
-166 165 56 0
166 -165 56 0
166 165 -56 0
-167 -166 -57 0
-167 166 57 0
167 -166 57 0
167 166 -57 0
-167 0
-168 -23 -26 0
-168 23 26 0
168 -23 26 0
168 23 -26 0
-169 -168 -32 0
-169 168 32 0
169 -168 32 0
169 168 -32 0
-170 -169 -38 0
-170 169 38 0
170 -169 38 0
170 169 -38 0
-171 -170 -57 0
-171 170 57 0
171 -170 57 0
171 170 -57 0
-172 -171 -58 0
-172 171 58 0
172 -171 58 0
172 171 -58 0
-172 0
-173 -24 -27 0
-173 24 27 0
173 -24 27 0
173 24 -27 0
-174 -173 -33 0
-174 173 33 0
174 -173 33 0
174 173 -33 0
-175 -174 -39 0
-175 174 39 0
175 -174 39 0
175 174 -39 0
-176 -175 -58 0
-176 175 58 0
176 -175 58 0
176 175 -58 0
-177 -176 -59 0
-177 176 59 0
177 -176 59 0
177 176 -59 0
-177 0
-178 -19 -28 0
-178 19 28 0
178 -19 28 0
178 19 -28 0
-179 -178 -34 0
-179 178 34 0
179 -178 34 0
179 178 -34 0
-180 -179 -40 0
-180 179 40 0
180 -179 40 0
180 179 -40 0
-181 -180 -59 0
-181 180 59 0
181 -180 59 0
181 180 -59 0
-182 -181 -60 0
-182 181 60 0
182 -181 60 0
182 181 -60 0
-182 0
-183 -20 -29 0
-183 20 29 0
183 -20 29 0
183 20 -29 0
-184 -183 -35 0
-184 183 35 0
184 -183 35 0
184 183 -35 0
-185 -184 -41 0
-185 184 41 0
185 -184 41 0
185 184 -41 0
-186 -185 -55 0
-186 185 55 0
186 -185 55 0
186 185 -55 0
-187 -186 -60 0
-187 186 60 0
187 -186 60 0
187 186 -60 0
-187 0
-188 -21 -30 0
-188 21 30 0
188 -21 30 0
188 21 -30 0
-189 -188 -36 0
-189 188 36 0
189 -188 36 0
189 188 -36 0
-190 -189 -42 0
-190 189 42 0
190 -189 42 0
190 189 -42 0
-191 -190 -55 0
-191 190 55 0
191 -190 55 0
191 190 -55 0
-192 -191 -56 0
-192 191 56 0
192 -191 56 0
192 191 -56 0
-192 0
-193 -1 -28 0
-193 1 28 0
193 -1 28 0
193 1 -28 0
-194 -193 -31 0
-194 193 31 0
194 -193 31 0
194 193 -31 0
-195 -194 -43 0
-195 194 43 0
195 -194 43 0
195 194 -43 0
-196 -195 -62 0
-196 195 62 0
196 -195 62 0
196 195 -62 0
-197 -196 -63 0
-197 196 63 0
197 -196 63 0
197 196 -63 0
-197 0
-198 -2 -29 0
-198 2 29 0
198 -2 29 0
198 2 -29 0
-199 -198 -32 0
-199 198 32 0
199 -198 32 0
199 198 -32 0
-200 -199 -44 0
-200 199 44 0
200 -199 44 0
200 199 -44 0
-201 -200 -63 0
-201 200 63 0
201 -200 63 0
201 200 -63 0
-202 -201 -64 0
-202 201 64 0
202 -201 64 0
202 201 -64 0
-202 0
-203 -3 -30 0
-203 3 30 0
203 -3 30 0
203 3 -30 0
-204 -203 -33 0
-204 203 33 0
204 -203 33 0
204 203 -33 0
-205 -204 -45 0
-205 204 45 0
205 -204 45 0
205 204 -45 0
-206 -205 -64 0
-206 205 64 0
206 -205 64 0
206 205 -64 0
-207 -206 -65 0
-207 206 65 0
207 -206 65 0
207 206 -65 0
-207 0
-208 -4 -25 0
-208 4 25 0
208 -4 25 0
208 4 -25 0
-209 -208 -34 0
-209 208 34 0
209 -208 34 0
209 208 -34 0
-210 -209 -46 0
-210 209 46 0
210 -209 46 0
210 209 -46 0
-211 -210 -65 0
-211 210 65 0
211 -210 65 0
211 210 -65 0
-212 -211 -66 0
-212 211 66 0
212 -211 66 0
212 211 -66 0
-212 0
-213 -5 -26 0
-213 5 26 0
213 -5 26 0
213 5 -26 0
-214 -213 -35 0
-214 213 35 0
214 -213 35 0
214 213 -35 0
-215 -214 -47 0
-215 214 47 0
215 -214 47 0
215 214 -47 0
-216 -215 -61 0
-216 215 61 0
216 -215 61 0
216 215 -61 0
-217 -216 -66 0
-217 216 66 0
217 -216 66 0
217 216 -66 0
-217 0
-218 -6 -27 0
-218 6 27 0
218 -6 27 0
218 6 -27 0
-219 -218 -36 0
-219 218 36 0
219 -218 36 0
219 218 -36 0
-220 -219 -48 0
-220 219 48 0
220 -219 48 0
220 219 -48 0
-221 -220 -61 0
-221 220 61 0
221 -220 61 0
221 220 -61 0
-222 -221 -62 0
-222 221 62 0
222 -221 62 0
222 221 -62 0
-222 0
-223 -1 -7 0
-223 1 7 0
223 -1 7 0
223 1 -7 0
-224 -223 -34 0
-224 223 34 0
224 -223 34 0
224 223 -34 0
-225 -224 -49 0
-225 224 49 0
225 -224 49 0
225 224 -49 0
-226 -225 -68 0
-226 225 68 0
226 -225 68 0
226 225 -68 0
-227 -226 -69 0
-227 226 69 0
227 -226 69 0
227 226 -69 0
-227 0
-228 -2 -8 0
-228 2 8 0
228 -2 8 0
228 2 -8 0
-229 -228 -35 0
-229 228 35 0
229 -228 35 0
229 228 -35 0
-230 -229 -50 0
-230 229 50 0
230 -229 50 0
230 229 -50 0
-231 -230 -69 0
-231 230 69 0
231 -230 69 0
231 230 -69 0
-232 -231 -70 0
-232 231 70 0
232 -231 70 0
232 231 -70 0
-232 0
-233 -3 -9 0
-233 3 9 0
233 -3 9 0
233 3 -9 0
-234 -233 -36 0
-234 233 36 0
234 -233 36 0
234 233 -36 0
-235 -234 -51 0
-235 234 51 0
235 -234 51 0
235 234 -51 0
-236 -235 -70 0
-236 235 70 0
236 -235 70 0
236 235 -70 0
-237 -236 -71 0
-237 236 71 0
237 -236 71 0
237 236 -71 0
-237 0
-238 -4 -10 0
-238 4 10 0
238 -4 10 0
238 4 -10 0
-239 -238 -31 0
-239 238 31 0
239 -238 31 0
239 238 -31 0
-240 -239 -52 0
-240 239 52 0
240 -239 52 0
240 239 -52 0
-241 -240 -71 0
-241 240 71 0
241 -240 71 0
241 240 -71 0
-242 -241 -72 0
-242 241 72 0
242 -241 72 0
242 241 -72 0
-242 0
-243 -5 -11 0
-243 5 11 0
243 -5 11 0
243 5 -11 0
-244 -243 -32 0
-244 243 32 0
244 -243 32 0
244 243 -32 0
-245 -244 -53 0
-245 244 53 0
245 -244 53 0
245 244 -53 0
-246 -245 -67 0
-246 245 67 0
246 -245 67 0
246 245 -67 0
-247 -246 -72 0
-247 246 72 0
247 -246 72 0
247 246 -72 0
-247 0
-248 -6 -12 0
-248 6 12 0
248 -6 12 0
248 6 -12 0
-249 -248 -33 0
-249 248 33 0
249 -248 33 0
249 248 -33 0
-250 -249 -54 0
-250 249 54 0
250 -249 54 0
250 249 -54 0
-251 -250 -67 0
-251 250 67 0
251 -250 67 0
251 250 -67 0
-252 -251 -68 0
-252 251 68 0
252 -251 68 0
252 251 -68 0
-252 0
-253 -7 -8 0
-253 7 8 0
253 -7 8 0
253 7 -8 0
-254 -253 -9 0
-254 253 9 0
254 -253 9 0
254 253 -9 0
-255 -254 -12 0
-255 254 12 0
255 -254 12 0
255 254 -12 0
-256 -255 -25 0
-256 255 25 0
256 -255 25 0
256 255 -25 0
-257 -256 -29 0
-257 256 29 0
257 -256 29 0
257 256 -29 0
-258 -7 -8 0
-258 7 8 0
258 -7 8 0
258 7 -8 0
-259 -258 -9 0
-259 258 9 0
259 -258 9 0
259 258 -9 0
-260 -259 -10 0
-260 259 10 0
260 -259 10 0
260 259 -10 0
-261 -260 -26 0
-261 260 26 0
261 -260 26 0
261 260 -26 0
-262 -261 -30 0
-262 261 30 0
262 -261 30 0
262 261 -30 0
-263 -3 -7 0
-263 3 7 0
263 -3 7 0
263 3 -7 0
-264 -263 -8 0
-264 263 8 0
264 -263 8 0
264 263 -8 0
-265 -264 -9 0
-265 264 9 0
265 -264 9 0
265 264 -9 0
-266 -265 -19 0
-266 265 19 0
266 -265 19 0
266 265 -19 0
-267 -266 -25 0
-267 266 25 0
267 -266 25 0
267 266 -25 0
-268 -267 -37 0
-268 267 37 0
268 -267 37 0
268 267 -37 0
-269 -268 -38 0
-269 268 38 0
269 -268 38 0
269 268 -38 0
-270 -269 -40 0
-270 269 40 0
270 -269 40 0
270 269 -40 0
-271 -270 -43 0
-271 270 43 0
271 -270 43 0
271 270 -43 0
-272 -271 -44 0
-272 271 44 0
272 -271 44 0
272 271 -44 0
-273 -272 -49 0
-273 272 49 0
273 -272 49 0
273 272 -49 0
-274 -1 -2 0
-274 1 2 0
274 -1 2 0
274 1 -2 0
-275 -274 -3 0
-275 274 3 0
275 -274 3 0
275 274 -3 0
-276 -275 -4 0
-276 275 4 0
276 -275 4 0
276 275 -4 0
-277 -276 -8 0
-277 276 8 0
277 -276 8 0
277 276 -8 0
-278 -277 -14 0
-278 277 14 0
278 -277 14 0
278 277 -14 0
-279 -278 -15 0
-279 278 15 0
279 -278 15 0
279 278 -15 0
-280 -279 -20 0
-280 279 20 0
280 -279 20 0
280 279 -20 0
-281 -280 -31 0
-281 280 31 0
281 -280 31 0
281 280 -31 0
-282 -281 -39 0
-282 281 39 0
282 -281 39 0
282 281 -39 0
-283 -282 -43 0
-283 282 43 0
283 -282 43 0
283 282 -43 0
-284 -283 -50 0
-284 283 50 0
284 -283 50 0
284 283 -50 0
-285 -1 -2 0
-285 1 2 0
285 -1 2 0
285 1 -2 0
-286 -285 -19 0
-286 285 19 0
286 -285 19 0
286 285 -19 0
-287 -286 -20 0
-287 286 20 0
287 -286 20 0
287 286 -20 0
-288 -287 -37 0
-288 287 37 0
288 -287 37 0
288 287 -37 0
-289 -288 -40 0
-289 288 40 0
289 -288 40 0
289 288 -40 0
-290 -289 -43 0
-290 289 43 0
290 -289 43 0
290 289 -43 0
-291 -290 -46 0
-291 290 46 0
291 -290 46 0
291 290 -46 0
-292 -1 -2 0
-292 1 2 0
292 -1 2 0
292 1 -2 0
-293 -292 -4 0
-293 292 4 0
293 -292 4 0
293 292 -4 0
-294 -293 -8 0
-294 293 8 0
294 -293 8 0
294 293 -8 0
-295 -294 -10 0
-295 294 10 0
295 -294 10 0
295 294 -10 0
-296 -295 -20 0
-296 295 20 0
296 -295 20 0
296 295 -20 0
-297 -296 -25 0
-297 296 25 0
297 -296 25 0
297 296 -25 0
-298 -297 -26 0
-298 297 26 0
298 -297 26 0
298 297 -26 0
-299 -298 -37 0
-299 298 37 0
299 -298 37 0
299 298 -37 0
-300 -299 -38 0
-300 299 38 0
300 -299 38 0
300 299 -38 0
-301 -300 -39 0
-301 300 39 0
301 -300 39 0
301 300 -39 0
-302 -301 -43 0
-302 301 43 0
302 -301 43 0
302 301 -43 0
-303 -302 -44 0
-303 302 44 0
303 -302 44 0
303 302 -44 0
-304 -303 -45 0
-304 303 45 0
304 -303 45 0
304 303 -45 0
-305 -14 -15 0
-305 14 15 0
305 -14 15 0
305 14 -15 0
-306 -305 -16 0
-306 305 16 0
306 -305 16 0
306 305 -16 0
-307 -306 -17 0
-307 306 17 0
307 -306 17 0
307 306 -17 0
-308 -307 -31 0
-308 307 31 0
308 -307 31 0
308 307 -31 0
-309 -308 -33 0
-309 308 33 0
309 -308 33 0
309 308 -33 0
-310 -15 -16 0
-310 15 16 0
310 -15 16 0
310 15 -16 0
-311 -310 -17 0
-311 310 17 0
311 -310 17 0
311 310 -17 0
-312 -311 -18 0
-312 311 18 0
312 -311 18 0
312 311 -18 0
-313 -312 -32 0
-313 312 32 0
313 -312 32 0
313 312 -32 0
-314 -313 -34 0
-314 313 34 0
314 -313 34 0
314 313 -34 0
-315 -13 -14 0
-315 13 14 0
315 -13 14 0
315 13 -14 0
-316 -315 -15 0
-316 315 15 0
316 -315 15 0
316 315 -15 0
-317 -316 -16 0
-317 316 16 0
317 -316 16 0
317 316 -16 0
-318 -317 -32 0
-318 317 32 0
318 -317 32 0
318 317 -32 0
-319 -318 -36 0
-319 318 36 0
319 -318 36 0
319 318 -36 0
-320 -13 -14 0
-320 13 14 0
320 -13 14 0
320 13 -14 0
-321 -320 -15 0
-321 320 15 0
321 -320 15 0
321 320 -15 0
-322 -321 -18 0
-322 321 18 0
322 -321 18 0
322 321 -18 0
-323 -322 -31 0
-323 322 31 0
323 -322 31 0
323 322 -31 0
-324 -323 -35 0
-324 323 35 0
324 -323 35 0
324 323 -35 0
-325 -9 -15 0
-325 9 15 0
325 -9 15 0
325 9 -15 0
-326 -325 -16 0
-326 325 16 0
326 -325 16 0
326 325 -16 0
-327 -326 -19 0
-327 326 19 0
327 -326 19 0
327 326 -19 0
-328 -327 -32 0
-328 327 32 0
328 -327 32 0
328 327 -32 0
-329 -328 -40 0
-329 328 40 0
329 -328 40 0
329 328 -40 0
-330 -329 -44 0
-330 329 44 0
330 -329 44 0
330 329 -44 0
-331 -330 -51 0
-331 330 51 0
331 -330 51 0
331 330 -51 0
-332 -1 -2 0
-332 1 2 0
332 -1 2 0
332 1 -2 0
-333 -332 -3 0
-333 332 3 0
333 -332 3 0
333 332 -3 0
-334 -333 -9 0
-334 333 9 0
334 -333 9 0
334 333 -9 0
-335 -334 -20 0
-335 334 20 0
335 -334 20 0
335 334 -20 0
-336 -335 -26 0
-336 335 26 0
336 -335 26 0
336 335 -26 0
-337 -336 -38 0
-337 336 38 0
337 -336 38 0
337 336 -38 0
-338 -337 -43 0
-338 337 43 0
338 -337 43 0
338 337 -43 0
-339 -338 -44 0
-339 338 44 0
339 -338 44 0
339 338 -44 0
-340 -339 -52 0
-340 339 52 0
340 -339 52 0
340 339 -52 0
257 262 273 284 291 304 309 314 319 324 331 340 0
-1 341 0
-341 342 0
-2 -341 343 0
-343 344 0
-3 -343 0
-2 342 0
-342 345 0
-3 -342 344 0
-344 346 0
-4 -344 0
-3 345 0
-345 347 0
-4 -345 346 0
-346 348 0
-5 -346 0
-4 347 0
-347 349 0
-5 -347 348 0
-348 350 0
-6 -348 0
-5 349 0
-349 351 0
-6 -349 350 0
-350 352 0
-7 -350 0
-6 351 0
-351 353 0
-7 -351 352 0
-352 354 0
-8 -352 0
-7 353 0
-353 355 0
-8 -353 354 0
-354 356 0
-9 -354 0
-8 355 0
-355 357 0
-9 -355 356 0
-356 358 0
-10 -356 0
-9 357 0
-357 359 0
-10 -357 358 0
-358 360 0
-11 -358 0
-10 359 0
-359 361 0
-11 -359 360 0
-360 362 0
-12 -360 0
-11 361 0
-361 363 0
-12 -361 362 0
-362 364 0
-13 -362 0
-12 363 0
-363 365 0
-13 -363 364 0
-364 366 0
-14 -364 0
-13 365 0
-365 367 0
-14 -365 366 0
-366 368 0
-15 -366 0
-14 367 0
-367 369 0
-15 -367 368 0
-368 370 0
-16 -368 0
-15 369 0
-369 371 0
-16 -369 370 0
-370 372 0
-17 -370 0
-16 371 0
-371 373 0
-17 -371 372 0
-372 374 0
-18 -372 0
-17 373 0
-373 375 0
-18 -373 374 0
-374 376 0
-19 -374 0
-18 375 0
-375 377 0
-19 -375 376 0
-376 378 0
-20 -376 0
-19 377 0
-377 379 0
-20 -377 378 0
-378 380 0
-21 -378 0
-20 379 0
-379 381 0
-21 -379 380 0
-380 382 0
-22 -380 0
-21 381 0
-381 383 0
-22 -381 382 0
-382 384 0
-23 -382 0
-22 383 0
-383 385 0
-23 -383 384 0
-384 386 0
-24 -384 0
-23 385 0
-385 387 0
-24 -385 386 0
-386 388 0
-25 -386 0
-24 387 0
-387 389 0
-25 -387 388 0
-388 390 0
-26 -388 0
-25 389 0
-389 391 0
-26 -389 390 0
-390 392 0
-27 -390 0
-26 391 0
-391 393 0
-27 -391 392 0
-392 394 0
-28 -392 0
-27 393 0
-393 395 0
-28 -393 394 0
-394 396 0
-29 -394 0
-28 395 0
-395 397 0
-29 -395 396 0
-396 398 0
-30 -396 0
-29 397 0
-397 399 0
-30 -397 398 0
-398 400 0
-31 -398 0
-30 399 0
-399 401 0
-31 -399 400 0
-400 402 0
-32 -400 0
-31 401 0
-401 403 0
-32 -401 402 0
-402 404 0
-33 -402 0
-32 403 0
-403 405 0
-33 -403 404 0
-404 406 0
-34 -404 0
-33 405 0
-405 407 0
-34 -405 406 0
-406 408 0
-35 -406 0
-34 407 0
-407 409 0
-35 -407 408 0
-408 410 0
-36 -408 0
-35 409 0
-409 411 0
-36 -409 410 0
-410 412 0
-37 -410 0
-36 411 0
-411 413 0
-37 -411 412 0
-412 414 0
-38 -412 0
-37 413 0
-413 415 0
-38 -413 414 0
-414 416 0
-39 -414 0
-38 415 0
-415 417 0
-39 -415 416 0
-416 418 0
-40 -416 0
-39 417 0
-417 419 0
-40 -417 418 0
-418 420 0
-41 -418 0
-40 419 0
-419 421 0
-41 -419 420 0
-420 422 0
-42 -420 0
-41 421 0
-421 423 0
-42 -421 422 0
-422 424 0
-43 -422 0
-42 423 0
-423 425 0
-43 -423 424 0
-424 426 0
-44 -424 0
-43 425 0
-425 427 0
-44 -425 426 0
-426 428 0
-45 -426 0
-44 427 0
-427 429 0
-45 -427 428 0
-428 430 0
-46 -428 0
-45 429 0
-429 431 0
-46 -429 430 0
-430 432 0
-47 -430 0
-46 431 0
-431 433 0
-47 -431 432 0
-432 434 0
-48 -432 0
-47 433 0
-433 435 0
-48 -433 434 0
-434 436 0
-49 -434 0
-48 435 0
-435 437 0
-49 -435 436 0
-436 438 0
-50 -436 0
-49 437 0
-437 439 0
-50 -437 438 0
-438 440 0
-51 -438 0
-50 439 0
-439 441 0
-51 -439 440 0
-440 442 0
-52 -440 0
-51 441 0
-441 443 0
-52 -441 442 0
-442 444 0
-53 -442 0
-52 443 0
-443 445 0
-53 -443 444 0
-444 446 0
-54 -444 0
-53 445 0
-445 447 0
-54 -445 446 0
-446 448 0
-55 -446 0
-54 447 0
-447 449 0
-55 -447 448 0
-448 450 0
-56 -448 0
-55 449 0
-449 451 0
-56 -449 450 0
-450 452 0
-57 -450 0
-56 451 0
-451 453 0
-57 -451 452 0
-452 454 0
-58 -452 0
-57 453 0
-453 455 0
-58 -453 454 0
-454 456 0
-59 -454 0
-58 455 0
-455 457 0
-59 -455 456 0
-456 458 0
-60 -456 0
-59 457 0
-457 459 0
-60 -457 458 0
-458 460 0
-61 -458 0
-60 459 0
-459 461 0
-61 -459 460 0
-460 462 0
-62 -460 0
-61 461 0
-461 463 0
-62 -461 462 0
-462 464 0
-63 -462 0
-62 463 0
-463 465 0
-63 -463 464 0
-464 466 0
-64 -464 0
-63 465 0
-465 467 0
-64 -465 466 0
-466 468 0
-65 -466 0
-64 467 0
-467 469 0
-65 -467 468 0
-468 470 0
-66 -468 0
-65 469 0
-469 471 0
-66 -469 470 0
-470 472 0
-67 -470 0
-66 471 0
-471 473 0
-67 -471 472 0
-472 474 0
-68 -472 0
-67 473 0
-473 475 0
-68 -473 474 0
-474 476 0
-69 -474 0
-68 475 0
-475 477 0
-69 -475 476 0
-476 478 0
-70 -476 0
-69 477 0
-477 479 0
-70 -477 478 0
-478 480 0
-71 -478 0
-70 479 0
-71 -479 480 0
-72 -480 0
